\ SCIP STATISTICS
\   Problem name     : CapacitatedFacilityLocation-20-10
\   Variables        : 210 (210 binary, 0 integer, 0 implicit integer, 0 continuous)
\   Constraints      : 231
Minimize
 Obj: +1260.15945787923 x0 +781.452245683758 x1 +1001.05216801575 x2 +1130.04116480364 x3 +972.84835231284 x4
      +360.979103825895 x5 +931.410388417765 x6 +1033.17574455081 x7 +1099.46653491435 x8 +1269.48721753334 x9
      +65.7178401576589 x10 +176.52188827215 x11 +58.8665463444044 x12 +195.268386327974 x13 +307.694606867843 x14
      +298.102756897332 x15 +84.6008503077206 x16 +199.717934588353 x17 +210.49731415513 x18 +182.034274908428 x19
      +41.7728605197367 x20 +70.2420480340817 x21 +46.0114397506198 x22 +10.458836763002 x23 +37.8526358753243 x24
      +34.5132790983325 x25 +36.9479761671041 x26 +8.9902245485212 x27 +30.59930932577 x28 +52.19135599354 x29
      +35.1365719575195 x30 +97.7663536730396 x31 +45.6314635997319 x32 +25.2221440186845 x33 +87.8574671368268 x34
      +82.2685256812316 x35 +26.2762007303776 x36 +27.1844584080216 x37 +50.4696918484633 x38 +71.9227778493596 x39
      +37.2785671909557 x40 +38.6467424100009 x41 +51.1400402907166 x42 +76.2697442254376 x43 +105.913549734356 x44
      +102.987165213883 x45 +42.2705634727417 x46 +78.7725227070008 x47 +64.4521636376835 x48 +39.908269404108 x49
      +59.132500095557 x50 +88.0785134114091 x51 +70.8134418934498 x52 +17.6263225076102 x53 +41.9744077264698 x54
      +37.0439520449872 x55 +52.6166685316704 x56 +18.6794916366485 x57 +21.8836828247835 x58 +57.7075427640727 x59
      +17.5769632612371 x60 +15.305357941738 x61 +22.5995542751123 x62 +35.0964925781708 x63 +47.3137939601554 x64
      +46.1482440388525 x65 +20.0395742684465 x66 +36.1323390690005 x67 +30.1387164790023 x68 +18.7640915698796 x69
      +61.1023848627369 x70 +73.8235504511422 x71 +69.9110936059919 x72 +29.3253195231594 x73 +14.3344646529129 x74
      +10.5321428300359 x75 +56.5467118221812 x76 +29.3316859869651 x77 +23.1791541141012 x78 +50.2327266107809 x79
      +259.434047763828 x80 +246.414273286081 x81 +302.172581752607 x82 +172.930585198494 x83 +52.7784092876278 x84
      +56.4929373604071 x85 +246.539438558953 x86 +175.927768138926 x87 +84.5031694435402 x88 +154.592974832214 x89
      +92.9279464419438 x90 +110.046563253356 x91 +109.915635853842 x92 +46.7139953534308 x93 +31.1252300293705 x94
      +25.7518841453295 x95 +85.8151214725986 x96 +47.8512020776746 x97 +21.5576043745123 x98 +68.8176464218577 x99
      +54.0600284280478 x100 +59.1684186878403 x101 +76.2943977435453 x102 +108.673305338398 x103 +152.528849052256 x104
      +148.090307775727 x105 +60.4859780902073 x106 +112.451758580869 x107 +90.2579138895981 x108 +55.3957088424267 x109
      +13.8315029550091 x110 +59.1506766918621 x111 +18.7411454194055 x112 +24.639580582961 x113 +62.9456882852267 x114
      +59.5945328313277 x115 +8.37964345668886 x116 +25.6900700638172 x117 +38.4710968539068 x118 +46.6343344739202 x119
      +91.6836756383195 x120 +213.127934409072 x121 +102.193341938443 x122 +37.4618660285709 x123 +165.326995717286 x124
      +154.194319140369 x125 +75.1324222501492 x126 +37.5972755353983 x127 +110.025807821564 x128 +162.39957855905 x129
      +187.095522206944 x130 +47.8216732286195 x131 +223.428950346428 x132 +221.829747593667 x133 +213.945428261524 x134
      +213.468394890778 x135 +191.631559526212 x136 +227.450388628549 x137 +148.080591485191 x138 +57.0437380780602 x139
      +225.331799671132 x140 +234.947121665537 x141 +255.875366749771 x142 +136.700035533559 x143 +4.15235474555485 x144
      +15.0583988285789 x145 +212.829235393024 x146 +137.374780778422 x147 +91.8546810705247 x148 +161.998659445963 x149
      +44.7098959015218 x150 +56.9232701582262 x151 +52.7490277865762 x152 +19.4671175018307 x153 +18.2801054183276 x154
      +15.2121181787507 x155 +40.8748442865421 x156 +19.921463404048 x157 +12.2898760921734 x158 +36.5525804278247 x159
      +75.9557186600922 x160 +193.716161874772 x161 +80.8187623889955 x162 +232.020490216769 x163 +360.686244008308 x164
      +349.568442255305 x165 +99.5257984224056 x166 +237.825033937544 x167 +241.913643077622 x168 +201.567006082751 x169
      +154.680689685799 x170 +265.943371652983 x171 +162.879305949452 x172 +60.3098851367548 x173 +157.707355374758 x174
      +146.380917653069 x175 +138.122625371994 x176 +55.247723683007 x177 +135.284663307973 x178 +206.713392709331 x179
      +196.258493629577 x180 +21.4247914920561 x181 +228.603451924185 x182 +261.525627702405 x183 +274.684619242363 x184
      +273.024713401248 x185 +206.055794283695 x186 +267.543083044565 x187 +197.422516998615 x188 +100.643726397867 x189
      +10.6510883241618 x190 +77.736327290749 x191 +28.1795463315173 x192 +70.0989850821809 x193 +123.684623115574 x194
      +118.850315215868 x195 +18.3678164532958 x196 +72.6061620743011 x197 +75.2721070420561 x198 +67.8770050758619 x199
      +35.7691536622848 x200 +70.3153213242611 x201 +44.0717755934627 x202 +7.1856108219106 x203 +48.9072811393051 x204
      +44.9138833203192 x205 +29.9438398721999 x206 +9.10053116620367 x207 +26.388120637352 x208 +48.6212570669261 x209
Subject to
 c0: +1 x10 +1 x11 +1 x12 +1 x13 +1 x14 +1 x15 +1 x16 +1 x17 +1 x18 +1 x19 >= +1
 c1: +1 x20 +1 x21 +1 x22 +1 x23 +1 x24 +1 x25 +1 x26 +1 x27 +1 x28 +1 x29 >= +1
 c2: +1 x30 +1 x31 +1 x32 +1 x33 +1 x34 +1 x35 +1 x36 +1 x37 +1 x38 +1 x39 >= +1
 c3: +1 x40 +1 x41 +1 x42 +1 x43 +1 x44 +1 x45 +1 x46 +1 x47 +1 x48 +1 x49 >= +1
 c4: +1 x50 +1 x51 +1 x52 +1 x53 +1 x54 +1 x55 +1 x56 +1 x57 +1 x58 +1 x59 >= +1
 c5: +1 x60 +1 x61 +1 x62 +1 x63 +1 x64 +1 x65 +1 x66 +1 x67 +1 x68 +1 x69 >= +1
 c6: +1 x70 +1 x71 +1 x72 +1 x73 +1 x74 +1 x75 +1 x76 +1 x77 +1 x78 +1 x79 >= +1
 c7: +1 x80 +1 x81 +1 x82 +1 x83 +1 x84 +1 x85 +1 x86 +1 x87 +1 x88 +1 x89 >= +1
 c8: +1 x90 +1 x91 +1 x92 +1 x93 +1 x94 +1 x95 +1 x96 +1 x97 +1 x98 +1 x99 >= +1
 c9: +1 x100 +1 x101 +1 x102 +1 x103 +1 x104 +1 x105 +1 x106 +1 x107 +1 x108 +1 x109 >= +1
 c10: +1 x110 +1 x111 +1 x112 +1 x113 +1 x114 +1 x115 +1 x116 +1 x117 +1 x118 +1 x119 >= +1
 c11: +1 x120 +1 x121 +1 x122 +1 x123 +1 x124 +1 x125 +1 x126 +1 x127 +1 x128 +1 x129 >= +1
 c12: +1 x130 +1 x131 +1 x132 +1 x133 +1 x134 +1 x135 +1 x136 +1 x137 +1 x138 +1 x139 >= +1
 c13: +1 x140 +1 x141 +1 x142 +1 x143 +1 x144 +1 x145 +1 x146 +1 x147 +1 x148 +1 x149 >= +1
 c14: +1 x150 +1 x151 +1 x152 +1 x153 +1 x154 +1 x155 +1 x156 +1 x157 +1 x158 +1 x159 >= +1
 c15: +1 x160 +1 x161 +1 x162 +1 x163 +1 x164 +1 x165 +1 x166 +1 x167 +1 x168 +1 x169 >= +1
 c16: +1 x170 +1 x171 +1 x172 +1 x173 +1 x174 +1 x175 +1 x176 +1 x177 +1 x178 +1 x179 >= +1
 c17: +1 x180 +1 x181 +1 x182 +1 x183 +1 x184 +1 x185 +1 x186 +1 x187 +1 x188 +1 x189 >= +1
 c18: +1 x190 +1 x191 +1 x192 +1 x193 +1 x194 +1 x195 +1 x196 +1 x197 +1 x198 +1 x199 >= +1
 c19: +1 x200 +1 x201 +1 x202 +1 x203 +1 x204 +1 x205 +1 x206 +1 x207 +1 x208 +1 x209 >= +1
 c20: +28 x10 +7 x20 +13 x30 +12 x40 +11 x50 +5 x60 +8 x70 +32 x80 +14 x90 +18 x100 +8 x110 +24 x120 +27 x130
  +25 x140 +7 x150 +34 x160 +24 x170 +28 x180 +14 x190 +9 x200 -285 x0 <= +0
 c21: +28 x11 +7 x21 +13 x31 +12 x41 +11 x51 +5 x61 +8 x71 +32 x81 +14 x91 +18 x101 +8 x111 +24 x121 +27 x131
  +25 x141 +7 x151 +34 x161 +24 x171 +28 x181 +14 x191 +9 x201 -108 x1 <= +0
 c22: +28 x12 +7 x22 +13 x32 +12 x42 +11 x52 +5 x62 +8 x72 +32 x82 +14 x92 +18 x102 +8 x112 +24 x122 +27 x132
  +25 x142 +7 x152 +34 x162 +24 x172 +28 x182 +14 x192 +9 x202 -167 x2 <= +0
 c23: +28 x13 +7 x23 +13 x33 +12 x43 +11 x53 +5 x63 +8 x73 +32 x83 +14 x93 +18 x103 +8 x113 +24 x123 +27 x133
  +25 x143 +7 x153 +34 x163 +24 x173 +28 x183 +14 x193 +9 x203 -208 x3 <= +0
 c24: +28 x14 +7 x24 +13 x34 +12 x44 +11 x54 +5 x64 +8 x74 +32 x84 +14 x94 +18 x104 +8 x114 +24 x124 +27 x134
  +25 x144 +7 x154 +34 x164 +24 x174 +28 x184 +14 x194 +9 x204 -128 x4 <= +0
 c25: +28 x15 +7 x25 +13 x35 +12 x45 +11 x55 +5 x65 +8 x75 +32 x85 +14 x95 +18 x105 +8 x115 +24 x125 +27 x135
  +25 x145 +7 x155 +34 x165 +24 x175 +28 x185 +14 x195 +9 x205 -22 x5 <= +0
 c26: +28 x16 +7 x26 +13 x36 +12 x46 +11 x56 +5 x66 +8 x76 +32 x86 +14 x96 +18 x106 +8 x116 +24 x126 +27 x136
  +25 x146 +7 x156 +34 x166 +24 x176 +28 x186 +14 x196 +9 x206 -142 x6 <= +0
 c27: +28 x17 +7 x27 +13 x37 +12 x47 +11 x57 +5 x67 +8 x77 +32 x87 +14 x97 +18 x107 +8 x117 +24 x127 +27 x137
  +25 x147 +7 x157 +34 x167 +24 x177 +28 x187 +14 x197 +9 x207 -165 x7 <= +0
 c28: +28 x18 +7 x28 +13 x38 +12 x48 +11 x58 +5 x68 +8 x78 +32 x88 +14 x98 +18 x108 +8 x118 +24 x128 +27 x138
  +25 x148 +7 x158 +34 x168 +24 x178 +28 x188 +14 x198 +9 x208 -220 x8 <= +0
 c29: +28 x19 +7 x29 +13 x39 +12 x49 +11 x59 +5 x69 +8 x79 +32 x89 +14 x99 +18 x109 +8 x119 +24 x129 +27 x139
  +25 x149 +7 x159 +34 x169 +24 x179 +28 x189 +14 x199 +9 x209 -295 x9 <= +0
 c30: +285 x0 +108 x1 +167 x2 +208 x3 +128 x4 +22 x5 +142 x6 +165 x7 +220 x8 +295 x9 >= +348
 c31: +1 x10 -1 x0 <= +0
 c32: +1 x11 -1 x1 <= +0
 c33: +1 x12 -1 x2 <= +0
 c34: +1 x13 -1 x3 <= +0
 c35: +1 x14 -1 x4 <= +0
 c36: +1 x15 -1 x5 <= +0
 c37: +1 x16 -1 x6 <= +0
 c38: +1 x17 -1 x7 <= +0
 c39: +1 x18 -1 x8 <= +0
 c40: +1 x19 -1 x9 <= +0
 c41: +1 x20 -1 x0 <= +0
 c42: +1 x21 -1 x1 <= +0
 c43: +1 x22 -1 x2 <= +0
 c44: +1 x23 -1 x3 <= +0
 c45: +1 x24 -1 x4 <= +0
 c46: +1 x25 -1 x5 <= +0
 c47: +1 x26 -1 x6 <= +0
 c48: +1 x27 -1 x7 <= +0
 c49: +1 x28 -1 x8 <= +0
 c50: +1 x29 -1 x9 <= +0
 c51: +1 x30 -1 x0 <= +0
 c52: +1 x31 -1 x1 <= +0
 c53: +1 x32 -1 x2 <= +0
 c54: +1 x33 -1 x3 <= +0
 c55: +1 x34 -1 x4 <= +0
 c56: +1 x35 -1 x5 <= +0
 c57: +1 x36 -1 x6 <= +0
 c58: +1 x37 -1 x7 <= +0
 c59: +1 x38 -1 x8 <= +0
 c60: +1 x39 -1 x9 <= +0
 c61: +1 x40 -1 x0 <= +0
 c62: +1 x41 -1 x1 <= +0
 c63: +1 x42 -1 x2 <= +0
 c64: +1 x43 -1 x3 <= +0
 c65: +1 x44 -1 x4 <= +0
 c66: +1 x45 -1 x5 <= +0
 c67: +1 x46 -1 x6 <= +0
 c68: +1 x47 -1 x7 <= +0
 c69: +1 x48 -1 x8 <= +0
 c70: +1 x49 -1 x9 <= +0
 c71: +1 x50 -1 x0 <= +0
 c72: +1 x51 -1 x1 <= +0
 c73: +1 x52 -1 x2 <= +0
 c74: +1 x53 -1 x3 <= +0
 c75: +1 x54 -1 x4 <= +0
 c76: +1 x55 -1 x5 <= +0
 c77: +1 x56 -1 x6 <= +0
 c78: +1 x57 -1 x7 <= +0
 c79: +1 x58 -1 x8 <= +0
 c80: +1 x59 -1 x9 <= +0
 c81: +1 x60 -1 x0 <= +0
 c82: +1 x61 -1 x1 <= +0
 c83: +1 x62 -1 x2 <= +0
 c84: +1 x63 -1 x3 <= +0
 c85: +1 x64 -1 x4 <= +0
 c86: +1 x65 -1 x5 <= +0
 c87: +1 x66 -1 x6 <= +0
 c88: +1 x67 -1 x7 <= +0
 c89: +1 x68 -1 x8 <= +0
 c90: +1 x69 -1 x9 <= +0
 c91: +1 x70 -1 x0 <= +0
 c92: +1 x71 -1 x1 <= +0
 c93: +1 x72 -1 x2 <= +0
 c94: +1 x73 -1 x3 <= +0
 c95: +1 x74 -1 x4 <= +0
 c96: +1 x75 -1 x5 <= +0
 c97: +1 x76 -1 x6 <= +0
 c98: +1 x77 -1 x7 <= +0
 c99: +1 x78 -1 x8 <= +0
 c100: +1 x79 -1 x9 <= +0
 c101: +1 x80 -1 x0 <= +0
 c102: +1 x81 -1 x1 <= +0
 c103: +1 x82 -1 x2 <= +0
 c104: +1 x83 -1 x3 <= +0
 c105: +1 x84 -1 x4 <= +0
 c106: +1 x85 -1 x5 <= +0
 c107: +1 x86 -1 x6 <= +0
 c108: +1 x87 -1 x7 <= +0
 c109: +1 x88 -1 x8 <= +0
 c110: +1 x89 -1 x9 <= +0
 c111: +1 x90 -1 x0 <= +0
 c112: +1 x91 -1 x1 <= +0
 c113: +1 x92 -1 x2 <= +0
 c114: +1 x93 -1 x3 <= +0
 c115: +1 x94 -1 x4 <= +0
 c116: +1 x95 -1 x5 <= +0
 c117: +1 x96 -1 x6 <= +0
 c118: +1 x97 -1 x7 <= +0
 c119: +1 x98 -1 x8 <= +0
 c120: +1 x99 -1 x9 <= +0
 c121: +1 x100 -1 x0 <= +0
 c122: +1 x101 -1 x1 <= +0
 c123: +1 x102 -1 x2 <= +0
 c124: +1 x103 -1 x3 <= +0
 c125: +1 x104 -1 x4 <= +0
 c126: +1 x105 -1 x5 <= +0
 c127: +1 x106 -1 x6 <= +0
 c128: +1 x107 -1 x7 <= +0
 c129: +1 x108 -1 x8 <= +0
 c130: +1 x109 -1 x9 <= +0
 c131: +1 x110 -1 x0 <= +0
 c132: +1 x111 -1 x1 <= +0
 c133: +1 x112 -1 x2 <= +0
 c134: +1 x113 -1 x3 <= +0
 c135: +1 x114 -1 x4 <= +0
 c136: +1 x115 -1 x5 <= +0
 c137: +1 x116 -1 x6 <= +0
 c138: +1 x117 -1 x7 <= +0
 c139: +1 x118 -1 x8 <= +0
 c140: +1 x119 -1 x9 <= +0
 c141: +1 x120 -1 x0 <= +0
 c142: +1 x121 -1 x1 <= +0
 c143: +1 x122 -1 x2 <= +0
 c144: +1 x123 -1 x3 <= +0
 c145: +1 x124 -1 x4 <= +0
 c146: +1 x125 -1 x5 <= +0
 c147: +1 x126 -1 x6 <= +0
 c148: +1 x127 -1 x7 <= +0
 c149: +1 x128 -1 x8 <= +0
 c150: +1 x129 -1 x9 <= +0
 c151: +1 x130 -1 x0 <= +0
 c152: +1 x131 -1 x1 <= +0
 c153: +1 x132 -1 x2 <= +0
 c154: +1 x133 -1 x3 <= +0
 c155: +1 x134 -1 x4 <= +0
 c156: +1 x135 -1 x5 <= +0
 c157: +1 x136 -1 x6 <= +0
 c158: +1 x137 -1 x7 <= +0
 c159: +1 x138 -1 x8 <= +0
 c160: +1 x139 -1 x9 <= +0
 c161: +1 x140 -1 x0 <= +0
 c162: +1 x141 -1 x1 <= +0
 c163: +1 x142 -1 x2 <= +0
 c164: +1 x143 -1 x3 <= +0
 c165: +1 x144 -1 x4 <= +0
 c166: +1 x145 -1 x5 <= +0
 c167: +1 x146 -1 x6 <= +0
 c168: +1 x147 -1 x7 <= +0
 c169: +1 x148 -1 x8 <= +0
 c170: +1 x149 -1 x9 <= +0
 c171: +1 x150 -1 x0 <= +0
 c172: +1 x151 -1 x1 <= +0
 c173: +1 x152 -1 x2 <= +0
 c174: +1 x153 -1 x3 <= +0
 c175: +1 x154 -1 x4 <= +0
 c176: +1 x155 -1 x5 <= +0
 c177: +1 x156 -1 x6 <= +0
 c178: +1 x157 -1 x7 <= +0
 c179: +1 x158 -1 x8 <= +0
 c180: +1 x159 -1 x9 <= +0
 c181: +1 x160 -1 x0 <= +0
 c182: +1 x161 -1 x1 <= +0
 c183: +1 x162 -1 x2 <= +0
 c184: +1 x163 -1 x3 <= +0
 c185: +1 x164 -1 x4 <= +0
 c186: +1 x165 -1 x5 <= +0
 c187: +1 x166 -1 x6 <= +0
 c188: +1 x167 -1 x7 <= +0
 c189: +1 x168 -1 x8 <= +0
 c190: +1 x169 -1 x9 <= +0
 c191: +1 x170 -1 x0 <= +0
 c192: +1 x171 -1 x1 <= +0
 c193: +1 x172 -1 x2 <= +0
 c194: +1 x173 -1 x3 <= +0
 c195: +1 x174 -1 x4 <= +0
 c196: +1 x175 -1 x5 <= +0
 c197: +1 x176 -1 x6 <= +0
 c198: +1 x177 -1 x7 <= +0
 c199: +1 x178 -1 x8 <= +0
 c200: +1 x179 -1 x9 <= +0
 c201: +1 x180 -1 x0 <= +0
 c202: +1 x181 -1 x1 <= +0
 c203: +1 x182 -1 x2 <= +0
 c204: +1 x183 -1 x3 <= +0
 c205: +1 x184 -1 x4 <= +0
 c206: +1 x185 -1 x5 <= +0
 c207: +1 x186 -1 x6 <= +0
 c208: +1 x187 -1 x7 <= +0
 c209: +1 x188 -1 x8 <= +0
 c210: +1 x189 -1 x9 <= +0
 c211: +1 x190 -1 x0 <= +0
 c212: +1 x191 -1 x1 <= +0
 c213: +1 x192 -1 x2 <= +0
 c214: +1 x193 -1 x3 <= +0
 c215: +1 x194 -1 x4 <= +0
 c216: +1 x195 -1 x5 <= +0
 c217: +1 x196 -1 x6 <= +0
 c218: +1 x197 -1 x7 <= +0
 c219: +1 x198 -1 x8 <= +0
 c220: +1 x199 -1 x9 <= +0
 c221: +1 x200 -1 x0 <= +0
 c222: +1 x201 -1 x1 <= +0
 c223: +1 x202 -1 x2 <= +0
 c224: +1 x203 -1 x3 <= +0
 c225: +1 x204 -1 x4 <= +0
 c226: +1 x205 -1 x5 <= +0
 c227: +1 x206 -1 x6 <= +0
 c228: +1 x207 -1 x7 <= +0
 c229: +1 x208 -1 x8 <= +0
 c230: +1 x209 -1 x9 <= +0
Bounds
 0 <= x0 <= 1
 0 <= x1 <= 1
 0 <= x2 <= 1
 0 <= x3 <= 1
 0 <= x4 <= 1
 0 <= x5 <= 1
 0 <= x6 <= 1
 0 <= x7 <= 1
 0 <= x8 <= 1
 0 <= x9 <= 1
 0 <= x10 <= 1
 0 <= x11 <= 1
 0 <= x12 <= 1
 0 <= x13 <= 1
 0 <= x14 <= 1
 0 <= x15 <= 1
 0 <= x16 <= 1
 0 <= x17 <= 1
 0 <= x18 <= 1
 0 <= x19 <= 1
 0 <= x20 <= 1
 0 <= x21 <= 1
 0 <= x22 <= 1
 0 <= x23 <= 1
 0 <= x24 <= 1
 0 <= x25 <= 1
 0 <= x26 <= 1
 0 <= x27 <= 1
 0 <= x28 <= 1
 0 <= x29 <= 1
 0 <= x30 <= 1
 0 <= x31 <= 1
 0 <= x32 <= 1
 0 <= x33 <= 1
 0 <= x34 <= 1
 0 <= x35 <= 1
 0 <= x36 <= 1
 0 <= x37 <= 1
 0 <= x38 <= 1
 0 <= x39 <= 1
 0 <= x40 <= 1
 0 <= x41 <= 1
 0 <= x42 <= 1
 0 <= x43 <= 1
 0 <= x44 <= 1
 0 <= x45 <= 1
 0 <= x46 <= 1
 0 <= x47 <= 1
 0 <= x48 <= 1
 0 <= x49 <= 1
 0 <= x50 <= 1
 0 <= x51 <= 1
 0 <= x52 <= 1
 0 <= x53 <= 1
 0 <= x54 <= 1
 0 <= x55 <= 1
 0 <= x56 <= 1
 0 <= x57 <= 1
 0 <= x58 <= 1
 0 <= x59 <= 1
 0 <= x60 <= 1
 0 <= x61 <= 1
 0 <= x62 <= 1
 0 <= x63 <= 1
 0 <= x64 <= 1
 0 <= x65 <= 1
 0 <= x66 <= 1
 0 <= x67 <= 1
 0 <= x68 <= 1
 0 <= x69 <= 1
 0 <= x70 <= 1
 0 <= x71 <= 1
 0 <= x72 <= 1
 0 <= x73 <= 1
 0 <= x74 <= 1
 0 <= x75 <= 1
 0 <= x76 <= 1
 0 <= x77 <= 1
 0 <= x78 <= 1
 0 <= x79 <= 1
 0 <= x80 <= 1
 0 <= x81 <= 1
 0 <= x82 <= 1
 0 <= x83 <= 1
 0 <= x84 <= 1
 0 <= x85 <= 1
 0 <= x86 <= 1
 0 <= x87 <= 1
 0 <= x88 <= 1
 0 <= x89 <= 1
 0 <= x90 <= 1
 0 <= x91 <= 1
 0 <= x92 <= 1
 0 <= x93 <= 1
 0 <= x94 <= 1
 0 <= x95 <= 1
 0 <= x96 <= 1
 0 <= x97 <= 1
 0 <= x98 <= 1
 0 <= x99 <= 1
 0 <= x100 <= 1
 0 <= x101 <= 1
 0 <= x102 <= 1
 0 <= x103 <= 1
 0 <= x104 <= 1
 0 <= x105 <= 1
 0 <= x106 <= 1
 0 <= x107 <= 1
 0 <= x108 <= 1
 0 <= x109 <= 1
 0 <= x110 <= 1
 0 <= x111 <= 1
 0 <= x112 <= 1
 0 <= x113 <= 1
 0 <= x114 <= 1
 0 <= x115 <= 1
 0 <= x116 <= 1
 0 <= x117 <= 1
 0 <= x118 <= 1
 0 <= x119 <= 1
 0 <= x120 <= 1
 0 <= x121 <= 1
 0 <= x122 <= 1
 0 <= x123 <= 1
 0 <= x124 <= 1
 0 <= x125 <= 1
 0 <= x126 <= 1
 0 <= x127 <= 1
 0 <= x128 <= 1
 0 <= x129 <= 1
 0 <= x130 <= 1
 0 <= x131 <= 1
 0 <= x132 <= 1
 0 <= x133 <= 1
 0 <= x134 <= 1
 0 <= x135 <= 1
 0 <= x136 <= 1
 0 <= x137 <= 1
 0 <= x138 <= 1
 0 <= x139 <= 1
 0 <= x140 <= 1
 0 <= x141 <= 1
 0 <= x142 <= 1
 0 <= x143 <= 1
 0 <= x144 <= 1
 0 <= x145 <= 1
 0 <= x146 <= 1
 0 <= x147 <= 1
 0 <= x148 <= 1
 0 <= x149 <= 1
 0 <= x150 <= 1
 0 <= x151 <= 1
 0 <= x152 <= 1
 0 <= x153 <= 1
 0 <= x154 <= 1
 0 <= x155 <= 1
 0 <= x156 <= 1
 0 <= x157 <= 1
 0 <= x158 <= 1
 0 <= x159 <= 1
 0 <= x160 <= 1
 0 <= x161 <= 1
 0 <= x162 <= 1
 0 <= x163 <= 1
 0 <= x164 <= 1
 0 <= x165 <= 1
 0 <= x166 <= 1
 0 <= x167 <= 1
 0 <= x168 <= 1
 0 <= x169 <= 1
 0 <= x170 <= 1
 0 <= x171 <= 1
 0 <= x172 <= 1
 0 <= x173 <= 1
 0 <= x174 <= 1
 0 <= x175 <= 1
 0 <= x176 <= 1
 0 <= x177 <= 1
 0 <= x178 <= 1
 0 <= x179 <= 1
 0 <= x180 <= 1
 0 <= x181 <= 1
 0 <= x182 <= 1
 0 <= x183 <= 1
 0 <= x184 <= 1
 0 <= x185 <= 1
 0 <= x186 <= 1
 0 <= x187 <= 1
 0 <= x188 <= 1
 0 <= x189 <= 1
 0 <= x190 <= 1
 0 <= x191 <= 1
 0 <= x192 <= 1
 0 <= x193 <= 1
 0 <= x194 <= 1
 0 <= x195 <= 1
 0 <= x196 <= 1
 0 <= x197 <= 1
 0 <= x198 <= 1
 0 <= x199 <= 1
 0 <= x200 <= 1
 0 <= x201 <= 1
 0 <= x202 <= 1
 0 <= x203 <= 1
 0 <= x204 <= 1
 0 <= x205 <= 1
 0 <= x206 <= 1
 0 <= x207 <= 1
 0 <= x208 <= 1
 0 <= x209 <= 1
Binaries
 x0 x1 x2 x3 x4 x5 x6 x7 x8 x9 x10 x11 x12 x13 x14 x15 x16 x17 x18 x19 x20 x21 x22 x23 x24 x25 x26 x27
 x28 x29 x30 x31 x32 x33 x34 x35 x36 x37 x38 x39 x40 x41 x42 x43 x44 x45 x46 x47 x48 x49 x50 x51 x52 x53
 x54 x55 x56 x57 x58 x59 x60 x61 x62 x63 x64 x65 x66 x67 x68 x69 x70 x71 x72 x73 x74 x75 x76 x77 x78 x79
 x80 x81 x82 x83 x84 x85 x86 x87 x88 x89 x90 x91 x92 x93 x94 x95 x96 x97 x98 x99 x100 x101 x102 x103 x104
 x105 x106 x107 x108 x109 x110 x111 x112 x113 x114 x115 x116 x117 x118 x119 x120 x121 x122 x123 x124 x125
 x126 x127 x128 x129 x130 x131 x132 x133 x134 x135 x136 x137 x138 x139 x140 x141 x142 x143 x144 x145 x146
 x147 x148 x149 x150 x151 x152 x153 x154 x155 x156 x157 x158 x159 x160 x161 x162 x163 x164 x165 x166 x167
 x168 x169 x170 x171 x172 x173 x174 x175 x176 x177 x178 x179 x180 x181 x182 x183 x184 x185 x186 x187 x188
 x189 x190 x191 x192 x193 x194 x195 x196 x197 x198 x199 x200 x201 x202 x203 x204 x205 x206 x207 x208 x209
End
